\* Problem: Unknown *\

Maximize
 obj: + xp_0_0 + xp_0_1 + xp_0_2 + xp_0_3 + xp_0_4 + xp_0_5 + xp_0_6
 + xp_0_7 + xp_1_0 + xp_1_1 + xp_2_0 + xp_2_1 + xp_2_2 + xp_2_3 + xp_2_4
 + xp_2_5 + xp_3_0 + xp_3_1 + xp_3_2 + xp_4_0 + xp_4_1 + xp_5_0 + xp_5_1
 + xp_5_2 + xp_6_0 + xp_6_1 + xp_6_2 + xp_6_3 + xp_7_0 + xp_7_1 + xp_8_0
 + xp_8_1 + xp_9_0 + xp_10_0 + xp_10_1 + xp_11_0 + xp_11_1 + xp_11_2
 + xp_11_3 + xp_12_0 + xp_12_1 + xp_13_0 + xp_13_1 + xp_14_0 + xp_14_1
 + xp_14_2 + xp_15_0 + xp_15_1 + xp_16_0 + xp_16_1 + xp_17_0 + xp_17_1
 + xp_17_2 + xp_17_3 + xp_17_4 + xp_17_5 + xp_18_0 + xp_18_1 + xp_18_2
 + xp_18_3 + xp_18_4 + xp_19_0 + xp_19_1 + xp_19_2 + xp_19_3 + xp_19_4
 + xp_20_0 + xp_20_1 + xp_20_2 + xp_20_3 + xp_21_0 + xp_21_1 + xp_21_2
 + xp_21_3 + xp_21_4 + xp_22_0 + xp_22_1 + xp_22_2 + xp_22_3 + xp_22_4
 + xp_22_5 + xp_23_0 + xp_23_1 + xp_23_2 + xp_23_3

Subject To
 r_1: 0 xp_0_0 <= 29.0077821011673
 r_2: + xp_22_3 + xp_18_4 + xp_18_3 + xp_15_1 + xp_12_1 + xp_5_2
 + xp_2_5 + xp_2_3 + xp_0_4 <= 27.9004491017964
 r_3: + xp_23_3 + xp_21_4 + xp_18_2 + xp_6_1 <= 30
 r_4: + xp_17_1 + xp_15_0 <= 30
 r_5: + xp_18_0 <= 27.6720505617978
 r_6: + xp_18_1 <= 30
 r_7: + xp_20_2 <= 29.0077821011673
 r_8: + xp_11_2 + xp_6_2 + xp_5_1 + xp_3_2 + xp_2_2 <= 27.9004491017964
 r_9: + xp_11_1 + xp_6_3 + xp_3_1 <= 30
 r_10: + xp_3_0 <= 30
 r_11: + xp_18_1 + xp_11_3 <= 27.6720505617978
 r_12: + xp_11_0 <= 30
 r_13: 0 xp_0_0 <= 30
 r_14: + xp_21_1 + xp_19_3 + xp_14_0 + xp_4_1 + xp_0_5 + xp_0_1
 <= 27.9004491017964
 r_15: + xp_21_0 + xp_19_2 <= 29.0077821011673
 r_16: + xp_22_1 + xp_21_3 + xp_14_2 + xp_0_6 + xp_0_3 + xp_0_2
 <= 29.0077821011673
 r_17: + xp_0_0 <= 27.6720505617978
 r_18: + xp_21_4 + xp_4_0 + xp_0_4 <= 29.0077821011673
 r_19: + xp_19_0 <= 29.0077821011673
 r_20: + xp_21_2 + xp_19_4 + xp_19_1 + xp_14_1 + xp_0_7
 <= 29.0077821011673
 r_21: + xp_20_1 <= 27.9004491017964
 r_22: + xp_21_1 + xp_7_1 <= 27.9004491017964
 r_23: + xp_22_3 + xp_22_2 + xp_17_3 <= 27.9004491017964
 r_24: + xp_23_2 + xp_18_4 + xp_15_1 + xp_6_2 + xp_3_2 + xp_0_5
 <= 29.2225609756098
 r_25: 0 xp_0_0 <= 27.9004491017964
 r_26: + xp_18_3 + xp_0_7 + xp_0_4 + xp_0_1 <= 27.6720505617978
 r_27: + xp_11_2 + xp_4_1 <= 27.9004491017964
 r_28: + xp_19_3 + xp_10_1 <= 27.9004491017964
 r_29: + xp_20_3 <= 29.0077821011673
 r_30: + xp_2_0 <= 27.9004491017964
 r_31: + xp_23_3 + xp_18_2 + xp_6_3 + xp_6_1 + xp_3_1 + xp_2_5 + xp_2_4
 <= 29.2225609756098
 r_32: + xp_2_1 <= 30
 r_33: + xp_11_1 + xp_2_3 <= 30
 r_34: + xp_19_4 + xp_19_2 + xp_2_2 <= 30
 r_35: 0 xp_0_0 <= 29.0077821011673
 r_36: + xp_14_2 + xp_9_0 <= 27.9004491017964
 r_37: + xp_21_3 + xp_13_1 + xp_8_1 + xp_0_3 <= 29.2225609756098
 r_38: + xp_1_1 <= 30
 r_39: + xp_17_3 + xp_17_2 + xp_0_6 <= 30
 r_40: + xp_0_2 <= 27.6720505617978
 r_41: + xp_12_0 + xp_2_4 <= 29.2225609756098
 r_42: + xp_21_3 <= 29.2225609756098
 r_43: + xp_22_4 + xp_16_0 <= 29.2225609756098
 r_44: + xp_23_3 + xp_23_2 + xp_23_1 + xp_16_1 <= 29.2225609756098
 r_45: + xp_17_4 + xp_15_1 + xp_12_1 + xp_3_2 + xp_3_1 + xp_2_5
 <= 29.2225609756098
 r_46: + xp_18_4 + xp_18_2 + xp_0_5 + xp_0_3 <= 27.6720505617978
 r_47: + xp_22_5 + xp_16_1 + xp_13_1 <= 30
 r_48: + xp_13_0 <= 29.2225609756098
 r_49: + xp_17_5 <= 30
 r_50: 0 xp_0_0 <= 27.6720505617978
 r_51: + xp_8_1 + xp_1_1 <= 30
 r_52: + xp_8_0 <= 29.2225609756098
 r_53: + xp_1_0 <= 30
 r_54: + xp_0_6 <= 27.6720505617978
 r_55: + xp_12_1 + xp_2_5 <= 30
 r_56: 0 xp_0_0 <= 30
 r_57: + xp_22_1 <= 27.6720505617978
 r_58: + xp_23_2 + xp_22_2 + xp_17_3 + xp_5_0 <= 27.6720505617978
 r_59: + xp_22_0 + xp_17_2 <= 27.6720505617978
 r_60: + xp_23_1 + xp_22_4 + xp_17_4 + xp_6_0 <= 27.6720505617978
 r_61: + xp_23_0 + xp_22_5 + xp_17_5 <= 27.6720505617978
 r_62: + xp_17_0 <= 27.6720505617978
 r_63: + xp_23_3 + xp_22_3 + xp_17_1 + xp_11_3 + xp_6_1 + xp_5_2
 <= 27.6720505617978
 r_64: + xp_6_3 + xp_6_2 + xp_5_1 <= 27.6720505617978
 r_65: + xp_20_1 + xp_14_1 + xp_10_1 + xp_7_1 + xp_2_1 + xp_0_7
 <= 27.9004491017964
 r_66: + xp_21_2 + xp_20_3 + xp_19_4 + xp_7_0 <= 30
 r_67: + xp_20_2 + xp_19_1 + xp_10_0 <= 30
 r_68: + xp_20_0 <= 29.0077821011673

Bounds
 0 <= xp_0_0 <= 28.8211483318801
 0 <= xp_0_1 <= 6.45315334039497
 0 <= xp_0_2 <= 15.294732035445
 0 <= xp_0_3 <= 2.54912200590751
 0 <= xp_0_4 <= 0.780806266897493
 0 <= xp_0_5 <= 0.780806266897493
 0 <= xp_0_6 <= 5.8790502787125
 0 <= xp_0_7 <= 4.11073453970249
 0 <= xp_1_0 <= 19.7499345300498
 0 <= xp_1_1 <= 16.4582787750415
 0 <= xp_2_0 <= 24.3353053907643
 0 <= xp_2_1 <= 0.696603668798356
 0 <= xp_2_2 <= 2.54912200590751
 0 <= xp_2_3 <= 3.48301834399178
 0 <= xp_2_4 <= 3.94232934350422
 0 <= xp_2_5 <= 0.696603668798356
 0 <= xp_3_0 <= 26.8920798609335
 0 <= xp_3_1 <= 4.4169350750521
 0 <= xp_3_2 <= 1.8678130691446
 0 <= xp_4_0 <= 24.4960428279688
 0 <= xp_4_1 <= 2.44960428279688
 0 <= xp_5_0 <= 9.79841713118751
 0 <= xp_5_1 <= 12.2480214139844
 0 <= xp_5_2 <= 4.89920856559375
 0 <= xp_6_0 <= 15.4325069816203
 0 <= xp_6_1 <= 2.20464385451719
 0 <= xp_6_2 <= 4.40928770903438
 0 <= xp_6_3 <= 2.20464385451719
 0 <= xp_7_0 <= 21.1278369391231
 0 <= xp_7_1 <= 2.11278369391231
 0 <= xp_8_0 <= 18.9844331916758
 0 <= xp_8_1 <= 1.89844331916758
 0 <= xp_9_0 <= 19.3671838608628
 0 <= xp_10_0 <= 15.8458777043423
 0 <= xp_10_1 <= 3.52130615652051
 0 <= xp_11_0 <= 25.4912200590751
 0 <= xp_11_1 <= 17.8438540413525
 0 <= xp_11_2 <= 5.09824401181501
 0 <= xp_11_3 <= 7.64736601772252
 0 <= xp_12_0 <= 16.5348289088789
 0 <= xp_12_1 <= 1.65348289088789
 0 <= xp_13_0 <= 12.8604224846836
 0 <= xp_13_1 <= 4.82265843175635
 0 <= xp_14_0 <= 7.65501338374024
 0 <= xp_14_1 <= 7.65501338374024
 0 <= xp_14_2 <= 1.53100267674805
 0 <= xp_15_0 <= 15.1569264998057
 0 <= xp_15_1 <= 1.51569264998057
 0 <= xp_16_0 <= 14.5445254291065
 0 <= xp_16_1 <= 1.45445254291065
 0 <= xp_17_0 <= 28.0632943595237
 0 <= xp_17_1 <= 5.1211963063562
 0 <= xp_17_2 <= 5.96325287681164
 0 <= xp_17_3 <= 1.70706543545207
 0 <= xp_17_4 <= 1.70706543545207
 0 <= xp_17_5 <= 4.25618744135957
 0 <= xp_18_0 <= 22.9114576066565
 0 <= xp_18_1 <= 13.2431782521146
 0 <= xp_18_2 <= 4.57003534272691
 0 <= xp_18_3 <= 2.54912200590751
 0 <= xp_18_4 <= 1.5233451142423
 0 <= xp_19_0 <= 29.5177570989224
 0 <= xp_19_1 <= 5.90966013575944
 0 <= xp_19_2 <= 5.90966013575944
 0 <= xp_19_3 <= 1.47741503393986
 0 <= xp_19_4 <= 1.47741503393986
 0 <= xp_20_0 <= 29.441206965085
 0 <= xp_20_1 <= 8.40518940061475
 0 <= xp_20_2 <= 4.20259470030737
 0 <= xp_20_3 <= 1.40086490010246
 0 <= xp_21_0 <= 24.0903398642406
 0 <= xp_21_1 <= 8.79560782879553
 0 <= xp_21_2 <= 2.46490921132035
 0 <= xp_21_3 <= 2.46490921132035
 0 <= xp_21_4 <= 3.78157661156768
 0 <= xp_22_0 <= 22.161271393294
 0 <= xp_22_1 <= 2.15870867597074
 0 <= xp_22_2 <= 11.2758423616154
 0 <= xp_22_3 <= 2.15870867597074
 0 <= xp_22_4 <= 1.07935433798537
 0 <= xp_22_5 <= 1.07935433798537
 0 <= xp_23_0 <= 23.2406257312794
 0 <= xp_23_1 <= 8.33630702577111
 0 <= xp_23_2 <= 6.17759834980038
 0 <= xp_23_3 <= 2.15870867597074

End
